15,1,5,1,12,2,4,1,13,3,11,4,9,3,6,1,14,4,1,4,7,5,8,5,3,5,10,5,2,5;1,1,12,1,15,2,8,2,4,2,13,4,3,3,14,2,6,3,7,4,9,4,10,4,2,2,11,5,5,5;8,1,9,1,11,3,7,2,10,1,5,3,1,3,15,3,14,3,4,3,13,5,6,4,3,4,12,5,2,3;2,1,13,2,7,1,11,2,1,2,12,3,3,2,14,1,6,2,8,3,10,3,5,4,4,4,9,5,15,5;13,1,11,1,3,1,5,2,9,2,7,3,10,2,12,4,14,5,8,4,15,4,6,5,1,5,4,5,2,4;
